p wcnf 1000 200 1
1 1 0
1 2 0
1 3 0
1 4 0
1 5 0
1 6 0
1 7 0
1 8 0
1 9 0
1 10 0
1 11 0
1 12 0
1 2 2 2 2 2 2 2 2 2 2 2 0
1 3 3 3 3 3 3 3 3 3 3 3 0
1 3 3 4 4 4 4 4 4 4 4 5 0
1 5 5 5 5 5 6 6 6 6 6 6 0
1 6 6 6 6 6 7 7 7 7 7 7 0
1 7 7 7 7 7 7 7 7 8 8 8 0
1 8 9 9 9 9 9 9 9 9 9 10 0
1 10 10 10 10 10 10 10 10 10 11 11 0
1 11 11 11 11 11 11 11 12 12 12 12 0
1 12 12 12 12 12 12 12 13 13 13 13 0
1 13 13 13 13 14 14 14 14 14 14 14 0
1 14 14 14 14 15 15 15 15 15 15 15 0
1 16 16 16 16 16 16 16 16 16 16 17 0
1 17 17 17 17 17 17 17 17 17 17 17 0
1 17 17 18 18 18 18 18 18 18 18 18 0
1 19 19 19 19 19 19 19 19 20 20 20 0
1 20 20 20 20 20 21 21 21 21 21 21 0
1 21 21 21 22 22 22 22 22 22 22 22 0
1 22 22 22 22 22 23 23 23 23 23 23 0
1 23 23 23 24 24 24 24 24 24 25 25 0
1 25 25 25 25 25 25 25 25 26 26 26 0
1 26 26 26 26 27 27 27 27 27 27 27 0
1 27 27 27 27 28 28 28 28 28 28 28 0
1 29 29 29 29 29 29 29 29 30 30 30 0
1 30 30 30 30 30 31 31 31 31 31 31 0
1 31 31 32 32 32 32 32 32 33 33 33 0
1 33 33 33 33 33 33 33 33 34 34 34 0
1 34 34 34 35 35 35 35 35 35 35 35 0
1 35 35 35 35 36 36 36 36 36 36 36 0
1 36 36 36 37 37 37 37 37 37 37 37 0
1 38 38 38 38 38 38 38 38 38 39 39 0
1 39 39 39 39 39 39 39 39 39 39 39 0
1 40 40 40 40 40 40 40 40 40 40 40 0
1 41 41 41 41 41 41 41 42 42 42 42 0
1 42 42 42 42 42 42 42 42 42 42 42 0
1 43 43 43 43 43 43 43 43 43 43 43 0
1 44 44 44 44 44 44 44 44 45 45 45 0
1 45 45 45 45 45 45 46 46 46 46 46 0
1 46 46 47 47 47 47 47 47 47 47 48 0
1 48 48 48 48 48 48 48 48 48 49 49 0
1 49 49 49 49 49 50 50 50 50 50 50 0
1 51 51 51 51 51 51 51 51 51 51 51 0
1 52 52 52 52 52 52 52 52 52 52 52 0
1 53 53 53 53 53 54 54 54 54 55 55 0
1 55 55 55 55 55 55 56 56 56 56 56 0
1 56 57 57 57 57 57 57 58 58 58 58 0
1 58 59 59 59 59 59 59 59 59 59 59 0
1 59 60 60 60 60 60 60 60 60 60 60 0
1 60 60 60 60 61 61 61 61 61 61 61 0
1 61 61 61 62 62 62 62 62 62 62 62 0
1 62 62 62 62 62 62 62 63 63 63 63 0
1 63 63 63 63 63 63 63 63 63 64 64 0
1 64 64 64 64 64 64 64 64 64 64 64 0
1 64 65 65 65 65 65 65 65 65 65 66 0
1 66 66 66 66 66 66 66 66 67 67 67 0
1 67 67 67 67 67 68 68 68 68 68 68 0
1 68 68 68 68 68 68 68 68 68 68 69 0
1 69 69 69 69 69 69 69 69 69 70 70 0
1 70 70 71 71 71 71 71 71 71 71 71 0
1 72 72 72 72 72 73 73 73 73 73 73 0
1 73 73 73 74 74 74 74 74 74 75 75 0
1 75 75 75 75 75 75 75 75 75 75 76 0
1 76 76 76 76 76 76 76 76 76 76 76 0
1 76 76 76 76 76 77 77 77 77 77 77 0
1 77 77 78 78 78 78 78 79 79 79 79 0
1 79 79 79 79 79 79 80 80 80 80 80 0
1 80 80 80 80 80 80 81 81 81 81 81 0
1 81 82 82 82 82 82 82 82 82 82 82 0
1 83 83 83 83 83 84 84 84 84 84 84 0
1 84 84 84 84 84 84 84 85 85 85 85 0
1 85 85 85 85 85 86 86 86 86 86 86 0
1 86 86 86 86 86 87 87 87 87 88 88 0
1 88 88 88 88 88 88 88 88 89 89 89 0
1 89 89 89 89 90 90 90 90 90 90 90 0
1 90 90 91 91 91 91 91 91 91 92 92 0
1 92 92 92 92 92 92 92 93 93 93 93 0
1 93 93 93 93 93 93 94 94 94 94 94 0
1 94 94 94 94 94 95 95 95 95 95 95 0
1 96 96 96 96 96 96 96 96 96 97 97 0
1 97 97 97 97 97 97 97 97 98 98 98 0
1 98 98 98 98 98 98 98 99 99 99 99 0
1 99 99 99 99 99 99 99 99 99 99 99 0
1 100 100 100 0
1  0
1 132 217 366 410 429 476 511 646 668 670 687 0
1 723 763 808 836 876 983 0
1  0
1 61 96 112 116 134 158 175 185 189 202 215 0
1 257 260 266 286 305 380 453 462 474 489 529 0
1 690 817 821 856 859 897 925 971 994 0
1  0
1 74 84 153 154 171 290 292 389 454 474 491 0
1 722 814 996 0
1  0
1 83 365 457 536 555 561 569 571 579 688 757 0
1 975 0
1  0
1 64 157 289 447 456 476 493 550 680 824 831 0
1 859 923 927 937 962 982 993 0
1  0
1 22 59 78 150 170 241 271 290 298 307 374 0
1 467 472 545 642 672 732 829 831 876 880 896 0
1 922 945 959 977 993 0
1  0
1 373 383 486 496 508 515 580 582 636 657 691 0
1 779 791 800 846 851 859 861 887 899 922 924 0
1  0
1  0
1 28 98 131 134 139 141 151 190 216 331 357 0
1 516 578 696 727 747 912 939 968 0
1  0
1 134 159 299 341 525 536 553 606 607 637 671 0
1 715 717 744 930 950 0
1  0
1 187 223 228 357 429 469 483 589 629 746 784 0
1 875 982 987 0
1  0
1 58 68 103 117 264 305 307 319 346 384 446 0
1 501 574 651 652 705 738 778 827 876 896 908 0
1  0
1  0
1 42 100 163 428 530 544 570 665 731 734 745 0
1 921 924 0
1  0
1 27 72 141 181 211 214 252 313 330 385 442 0
1 497 575 625 730 790 812 815 836 839 869 882 0
1 981 0
1  0
1 152 156 186 266 339 364 417 466 505 509 538 0
1 629 679 686 707 731 764 778 845 889 911 962 0
1  0
1  0
1 94 285 532 534 555 604 621 633 744 767 811 0
1  0
1 47 74 99 144 202 288 324 359 445 475 503 0
1 514 530 624 637 652 727 746 790 795 881 0
1  0
1 56 212 236 239 342 355 397 470 472 501 506 0
1 570 614 642 724 872 923 0
1  0
1 97 98 117 133 206 241 254 308 385 608 665 0
1 840 842 0
1  0
1 184 236 291 309 318 395 439 477 538 543 566 0
1 765 776 858 898 915 932 963 0
1  0
1 57 148 270 278 421 546 625 861 897 917 956 0
1  0
1 20 108 163 198 216 251 342 397 421 475 478 0
1 502 520 555 567 622 643 708 721 791 821 841 0
1  0
1  0
1 139 167 184 199 221 289 291 325 372 373 409 0
1 492 494 555 660 820 870 934 960 0
1  0
1 96 205 354 393 542 567 671 766 904 913 950 0
1  0
1  0
1 164 204 253 285 286 458 535 623 636 819 821 0
1  0
1  0
1 40 74 89 114 120 170 338 351 358 510 556 0
1 603 628 727 792 829 850 906 941 952 0
1  0
1 113 146 211 283 287 376 426 523 800 842 0
1  0
1 24 102 107 140 159 367 440 569 574 597 657 0
1 849 858 883 892 896 931 0
1  0
1 70 152 215 272 282 316 334 346 512 635 714 0
1 860 882 0
1  0
1 65 89 129 222 472 480 513 557 566 631 682 0
1 716 785 868 926 953 982 0
1  0
1 172 219 246 280 439 518 525 558 568 677 791 0
1 806 839 869 891 952 0
1  0
1 174 206 228 234 299 307 401 478 583 681 823 0
1 968 0
1  0
1 43 59 61 73 139 181 344 411 455 465 571 0
1 681 756 760 860 914 950 976 997 0
1  0
1 183 203 216 247 249 302 353 450 456 502 530 0
1 557 605 611 696 725 816 853 861 934 0
1  0
1 64 125 140 144 368 381 465 476 619 637 977 0
1  0
1 141 178 238 274 277 290 312 336 360 377 450 0
1 543 552 568 654 717 761 822 887 921 966 981 0
1  0
1  0
1 84 113 118 207 422 455 570 591 597 636 638 0
1 668 687 690 712 731 888 927 933 950 987 0
1  0
1 60 101 146 150 154 159 164 182 236 237 238 0
1 423 482 503 508 521 548 572 609 722 762 784 0
1  0
1  0
